\ This file has been generated by DOcplex
\ ENCODING=ISO-8859-1
\Problem name: random_problem.lp

Minimize
 obj: - 468 x0 - 234 x1 - 128 x2 - 64 x3 - 106 x4 - 53 x5 + [ 504 x0^2
      + 504 x0*x1 + 304 x0*x2 + 152 x0*x3 + 272 x0*x4 + 136 x0*x5 + 126 x1^2
      + 152 x1*x2 + 76 x1*x3 + 136 x1*x4 + 68 x1*x5 + 368 x2^2 + 368 x2*x3
      + 288 x2*x4 + 144 x2*x5 + 92 x3^2 + 144 x3*x4 + 72 x3*x5 + 344 x4^2
      + 344 x4*x5 + 86 x5^2 ]/2
Subject To
 c0: 2 x0 + x1 + 2 x2 + x3 + 2 x4 + x5 = 3

Bounds
 0 <= x0 <= 1
 0 <= x1 <= 1
 0 <= x2 <= 1
 0 <= x3 <= 1
 0 <= x4 <= 1
 0 <= x5 <= 1

Binaries
 x0 x1 x2 x3 x4 x5
End
